c numero: 62
c nombre: n-50-d-0.1
c densidad: 0.1
p edges 50 127
e 1 5
e 1 31
e 2 10
e 2 30
e 2 42
e 3 4
e 3 24
e 3 28
e 4 9
e 4 14
e 4 19
e 4 27
e 4 36
e 4 39
e 5 7
e 5 18
e 5 24
e 6 10
e 6 12
e 6 23
e 6 36
e 6 38
e 6 46
e 7 20
e 7 22
e 7 40
e 8 12
e 8 34
e 8 44
e 9 11
e 9 15
e 9 17
e 9 19
e 9 27
e 9 31
e 9 36
e 10 11
e 10 30
e 10 34
e 10 36
e 10 41
e 10 50
e 11 18
e 11 30
e 11 48
e 12 19
e 12 29
e 12 33
e 12 38
e 13 21
e 13 25
e 13 31
e 13 35
e 13 36
e 13 38
e 14 29
e 14 35
e 14 36
e 14 39
e 14 45
e 15 37
e 16 23
e 17 24
e 17 32
e 17 38
e 18 20
e 18 23
e 18 27
e 18 33
e 18 40
e 19 24
e 19 39
e 19 44
e 20 23
e 20 30
e 20 36
e 20 48
e 21 39
e 22 28
e 22 32
e 22 36
e 22 37
e 22 43
e 22 46
e 23 28
e 23 46
e 24 34
e 24 48
e 25 26
e 25 37
e 25 43
e 25 49
e 26 32
e 26 37
e 26 39
e 26 45
e 26 46
e 26 50
e 27 48
e 28 47
e 29 35
e 29 37
e 29 50
e 30 35
e 30 37
e 30 41
e 30 42
e 31 32
e 31 33
e 31 40
e 32 33
e 32 39
e 32 43
e 32 45
e 32 47
e 34 38
e 35 43
e 35 48
e 35 49
e 37 41
e 37 47
e 38 42
e 41 42
e 42 43
e 44 48
e 46 50
e 48 49
